03-arbiter/arbiter/model/design_smt2.smt2
; SMT-LIBv2 description generated by Yosys 0.57+268 (git sha1 47ca09a01, clang++ 18.1.8 -fPIC -O3)
; yosys-smt2-module arbiter
(declare-sort |arbiter_s| 0)
(declare-fun |arbiter_is| (|arbiter_s|) Bool)
(declare-fun |arbiter#0| (|arbiter_s|) (_ BitVec 1)) ; \req [0]
(define-fun |arbiter#1| ((state |arbiter_s|)) (_ BitVec 1) (ite (= ((_ extract 0 0) (|arbiter#0| state)) #b1) #b1 #b0)) ; \gnt [0]
(declare-fun |arbiter#2| (|arbiter_s|) (_ BitVec 1)) ; \req [1]
(define-fun |arbiter#3| ((state |arbiter_s|)) (_ BitVec 1) (ite (= ((_ extract 0 0) (|arbiter#2| state)) #b1) #b1 #b0)) ; $2\gnt[1:1]
(define-fun |arbiter#4| ((state |arbiter_s|)) (_ BitVec 1) (ite (= ((_ extract 0 0) (|arbiter#0| state)) #b1) #b0 (|arbiter#3| state))) ; \gnt [1]
; yosys-smt2-output gnt 2
; yosys-smt2-wire gnt 2
(define-fun |arbiter_n gnt| ((state |arbiter_s|)) (_ BitVec 2) (concat (|arbiter#4| state) (|arbiter#1| state)))
; yosys-smt2-input req 2
; yosys-smt2-wire req 2
; yosys-smt2-witness {"offset": 0, "path": ["\\req"], "smtname": "req", "smtoffset": 0, "type": "input", "width": 2}
(define-fun |arbiter_n req| ((state |arbiter_s|)) (_ BitVec 2) (concat (|arbiter#2| state) (|arbiter#0| state)))
(define-fun |arbiter#5| ((state |arbiter_s|)) Bool (and (or  (= ((_ extract 0 0) (|arbiter#1| state)) #b1) false) (or  (= ((_ extract 0 0) (|arbiter#4| state)) #b1) false))) ; $logic_and$arbiter.v:20$4_Y
(define-fun |arbiter#6| ((state |arbiter_s|)) Bool (not (or  (|arbiter#5| state) false))) ; $logic_not$arbiter.v:20$5_Y
; yosys-smt2-assert 0 _witness_.check_assert_arbiter_v_20_3 arbiter.v:20.9-20.36
(define-fun |arbiter_a 0| ((state |arbiter_s|)) Bool (or (|arbiter#6| state) (not true))) ; _witness_.check_assert_arbiter_v_20_3
; yosys-smt2-assert 1 _witness_.check_assert_arbiter_v_24_6 arbiter.v:24.13-24.35
(define-fun |arbiter_a 1| ((state |arbiter_s|)) Bool (or (= ((_ extract 0 0) (|arbiter#1| state)) #b1) (not (= ((_ extract 0 0) (|arbiter#1| state)) #b1)))) ; _witness_.check_assert_arbiter_v_24_6
(define-fun |arbiter#7| ((state |arbiter_s|)) (_ BitVec 1) (bvnot (|arbiter#4| state))) ; $eq$arbiter.v:25$9_Y
; yosys-smt2-assert 2 _witness_.check_assert_arbiter_v_25_8 arbiter.v:25.13-25.35
(define-fun |arbiter_a 2| ((state |arbiter_s|)) Bool (or (= ((_ extract 0 0) (|arbiter#7| state)) #b1) (not (= ((_ extract 0 0) (|arbiter#1| state)) #b1)))) ; _witness_.check_assert_arbiter_v_25_8
(define-fun |arbiter_a| ((state |arbiter_s|)) Bool (and
  (|arbiter_a 0| state)
  (|arbiter_a 1| state)
  (|arbiter_a 2| state)
))
(define-fun |arbiter_u| ((state |arbiter_s|)) Bool true)
(define-fun |arbiter_i| ((state |arbiter_s|)) Bool true)
(define-fun |arbiter_h| ((state |arbiter_s|)) Bool true)
(define-fun |arbiter_t| ((state |arbiter_s|) (next_state |arbiter_s|)) Bool true) ; end of module arbiter
; yosys-smt2-topmod arbiter
; end of yosys output
